750
750 750
1 524 907
2 524 737
3 524 794
4 523 710
5 521 249
6 521 786
7 521 484
8 519 55
9 519 177
10 518 360
11 518 499
12 518 153
13 518 99
14 517 348
15 517 217
16 516 664
17 515 458
18 515 658
19 514 781
20 513 194
21 512 312
22 512 238
23 512 921
24 512 83
25 511 762
26 511 594
27 511 827
28 511 92
29 510 486
30 510 765
31 510 65
32 510 167
33 510 403
34 509 170
35 509 325
36 509 507
37 508 793
38 508 312
39 507 13
40 507 728
41 507 330
42 506 657
43 505 468
44 505 712
45 505 78
46 504 913
47 503 489
48 502 478
49 501 8
50 501 780
51 501 277
52 500 361
53 500 533
54 500 517
55 499 427
56 499 888
57 498 722
58 498 73
59 498 576
60 497 941
61 497 830
62 497 282
63 497 165
64 497 768
65 496 637
66 496 295
67 496 769
68 494 856
69 494 748
70 494 555
71 493 810
72 493 911
73 492 598
74 491 959
75 491 204
76 490 472
77 490 537
78 489 18
79 489 966
80 488 810
81 487 426
82 487 842
83 484 904
84 483 86
85 483 269
86 483 421
87 482 731
88 482 102
89 482 413
90 481 830
91 481 76
92 479 302
93 478 310
94 478 446
95 477 682
96 477 578
97 476 438
98 476 849
99 475 73
100 475 786
101 474 662
102 474 923
103 472 271
104 471 516
105 471 134
106 470 236
107 469 616
108 468 190
109 468 663
110 467 822
111 467 173
112 467 523
113 467 941
114 466 926
115 464 47
116 464 657
117 463 765
118 463 124
119 462 960
120 462 317
121 462 674
122 462 908
123 462 633
124 461 135
125 460 910
126 460 772
127 458 767
128 458 454
129 458 910
130 457 47
131 456 819
132 456 744
133 455 296
134 455 83
135 454 863
136 454 607
137 454 893
138 454 804
139 454 320
140 453 215
141 453 992
142 452 804
143 452 607
144 452 90
145 452 635
146 450 401
147 450 120
148 450 444
149 449 514
150 448 971
151 448 373
152 448 66
153 448 327
154 447 669
155 447 146
156 447 254
157 446 66
158 445 352
159 445 205
160 445 213
161 443 502
162 443 628
163 442 701
164 442 558
165 442 947
166 441 14
167 440 347
168 440 944
169 439 297
170 438 777
171 438 965
172 438 927
173 437 532
174 437 847
175 436 796
176 436 171
177 435 92
178 435 72
179 435 940
180 434 669
181 434 512
182 433 667
183 433 638
184 433 176
185 433 276
186 432 529
187 432 982
188 432 620
189 432 707
190 431 148
191 430 506
192 430 991
193 430 281
194 429 453
195 429 535
196 428 338
197 428 530
198 427 662
199 427 323
200 427 605
201 426 134
202 426 354
203 425 223
204 425 771
205 425 726
206 424 368
207 424 264
208 424 681
209 424 472
210 423 72
211 423 939
212 422 295
213 422 222
214 422 913
215 421 393
216 419 839
217 418 160
218 418 676
219 418 801
220 417 667
221 416 108
222 415 172
223 414 181
224 414 697
225 414 395
226 413 788
227 413 94
228 412 820
229 412 349
230 412 554
231 412 941
232 411 131
233 410 481
234 410 254
235 410 928
236 410 773
237 410 706
238 410 868
239 409 390
240 408 673
241 408 433
242 407 74
243 406 308
244 406 83
245 406 716
246 405 713
247 405 471
248 405 893
249 405 973
250 404 513
251 404 370
252 403 657
253 401 514
254 400 852
255 400 342
256 398 837
257 398 167
258 397 787
259 396 228
260 393 22
261 393 738
262 393 263
263 393 71
264 393 623
265 392 616
266 392 137
267 392 433
268 392 764
269 391 745
270 391 979
271 390 817
272 390 444
273 390 833
274 389 544
275 388 569
276 387 591
277 386 443
278 386 377
279 386 156
280 386 979
281 385 272
282 385 291
283 383 610
284 383 866
285 382 51
286 382 977
287 381 600
288 381 285
289 381 715
290 380 469
291 380 457
292 380 960
293 379 661
294 377 585
295 376 734
296 375 464
297 375 513
298 373 566
299 373 616
300 373 952
301 372 429
302 372 504
303 371 443
304 370 962
305 369 887
306 368 656
307 367 102
308 367 658
309 367 667
310 367 108
311 365 931
312 365 236
313 365 314
314 364 142
315 363 282
316 363 889
317 363 90
318 363 776
319 362 196
320 362 63
321 362 616
322 361 331
323 360 520
324 360 949
325 360 552
326 360 485
327 360 558
328 359 712
329 358 547
330 358 187
331 357 994
332 357 825
333 356 356
334 356 126
335 355 668
336 355 395
337 355 779
338 353 545
339 353 99
340 353 566
341 352 381
342 351 949
343 351 438
344 351 708
345 350 368
346 349 137
347 348 820
348 348 728
349 348 607
350 347 89
351 346 169
352 346 359
353 346 377
354 345 4
355 345 112
356 344 0
357 344 748
358 344 233
359 344 298
360 344 183
361 344 868
362 343 143
363 342 656
364 341 948
365 341 766
366 340 156
367 340 420
368 339 139
369 339 74
370 338 687
371 337 155
372 337 184
373 336 363
374 336 91
375 334 848
376 334 466
377 334 168
378 334 701
379 333 828
380 333 802
381 332 648
382 331 252
383 331 490
384 330 441
385 329 361
386 329 717
387 329 419
388 328 872
389 328 551
390 328 898
391 328 488
392 327 52
393 327 960
394 327 723
395 326 505
396 326 337
397 326 8
398 325 126
399 325 577
400 325 875
401 324 330
402 324 757
403 324 961
404 324 710
405 323 597
406 321 811
407 321 272
408 320 522
409 320 491
410 319 180
411 319 51
412 319 882
413 318 680
414 318 722
415 318 877
416 318 186
417 317 431
418 317 494
419 316 653
420 315 545
421 315 341
422 315 610
423 314 903
424 314 349
425 314 483
426 313 355
427 313 808
428 312 124
429 312 477
430 312 682
431 312 39
432 312 450
433 311 448
434 310 927
435 310 460
436 310 210
437 309 985
438 309 218
439 309 686
440 309 784
441 308 869
442 308 582
443 307 622
444 307 356
445 306 878
446 306 883
447 306 361
448 306 303
449 305 306
450 304 578
451 303 182
452 303 85
453 303 524
454 303 570
455 303 222
456 303 444
457 303 168
458 302 667
459 302 8
460 302 263
461 301 687
462 300 954
463 300 435
464 297 9
465 297 690
466 297 226
467 296 777
468 296 166
469 295 434
470 295 714
471 295 689
472 294 110
473 293 888
474 293 371
475 292 983
476 292 585
477 292 15
478 291 444
479 291 918
480 289 421
481 289 194
482 289 184
483 288 627
484 288 376
485 287 264
486 287 953
487 287 618
488 285 89
489 285 776
490 284 94
491 284 755
492 282 659
493 282 758
494 282 800
495 282 405
496 282 182
497 281 943
498 280 76
499 279 383
500 279 44
501 279 562
502 279 836
503 278 851
504 278 825
505 278 63
506 278 415
507 274 386
508 273 720
509 273 560
510 273 840
511 273 33
512 272 904
513 272 70
514 272 695
515 272 866
516 271 422
517 271 703
518 270 148
519 270 506
520 269 680
521 269 115
522 267 361
523 267 887
524 266 390
525 265 31
526 264 193
527 264 810
528 263 348
529 262 399
530 262 663
531 262 337
532 261 794
533 259 38
534 259 622
535 259 507
536 259 923
537 258 763
538 257 962
539 257 110
540 256 960
541 255 504
542 254 89
543 254 240
544 253 726
545 253 920
546 252 257
547 252 982
548 252 410
549 251 758
550 251 148
551 251 244
552 251 902
553 251 116
554 250 632
555 250 754
556 249 107
557 248 280
558 248 376
559 248 219
560 247 377
561 246 674
562 245 660
563 244 561
564 244 79
565 244 799
566 243 106
567 243 180
568 243 284
569 243 523
570 243 7
571 242 866
572 242 835
573 241 175
574 240 114
575 240 453
576 239 860
577 239 962
578 239 863
579 238 750
580 237 907
581 237 44
582 237 467
583 236 291
584 236 179
585 236 214
586 235 254
587 235 173
588 235 512
589 233 206
590 233 155
591 233 347
592 233 750
593 232 541
594 231 793
595 230 934
596 229 766
597 229 493
598 228 424
599 228 590
600 227 996
601 227 99
602 227 527
603 226 606
604 223 807
605 222 492
606 222 6
607 221 525
608 221 959
609 221 852
610 220 94
611 220 696
612 220 146
613 219 802
614 218 602
615 218 414
616 218 914
617 218 375
618 217 203
619 216 383
620 216 711
621 215 963
622 215 594
623 215 639
624 214 607
625 214 537
626 214 143
627 214 659
628 213 700
629 213 180
630 213 72
631 213 341
632 212 94
633 211 456
634 211 563
635 211 982
636 209 190
637 208 488
638 207 65
639 206 44
640 205 136
641 205 379
642 204 848
643 204 556
644 204 994
645 203 336
646 202 917
647 201 503
648 200 154
649 200 428
650 199 507
651 199 29
652 199 350
653 198 786
654 198 20
655 198 633
656 197 240
657 197 684
658 196 411
659 195 76
660 195 91
661 194 161
662 194 98
663 194 486
664 194 819
665 194 610
666 193 856
667 193 278
668 193 205
669 192 467
670 192 718
671 192 102
672 192 632
673 192 433
674 192 769
675 191 608
676 190 84
677 190 810
678 189 680
679 189 73
680 189 220
681 188 260
682 188 721
683 187 760
684 185 281
685 185 193
686 184 368
687 184 467
688 183 600
689 183 734
690 183 584
691 183 858
692 182 316
693 182 312
694 181 660
695 181 896
696 181 908
697 181 883
698 180 58
699 180 605
700 179 88
701 179 415
702 179 283
703 178 109
704 178 281
705 177 29
706 177 74
707 175 592
708 175 847
709 175 199
710 175 625
711 174 425
712 171 671
713 171 713
714 170 121
715 169 647
716 168 4
717 168 62
718 168 145
719 168 262
720 167 829
721 166 232
722 165 580
723 163 339
724 162 898
725 161 60
726 161 153
727 160 8
728 160 544
729 159 875
730 159 629
731 159 868
732 158 546
733 157 286
734 156 624
735 155 548
736 155 901
737 155 881
738 154 456
739 154 772
740 154 526
741 153 408
742 153 845
743 152 861
744 152 379
745 151 95
746 151 305
747 151 407
748 151 691
749 151 327
750 151 91
